50
1 2
1 4
1 5
1 7
1 14
1 15
1 18
1 21
1 22
1 23
1 28
1 29
1 31
1 32
1 34
1 36
1 40
1 43
1 47
1 48
1 49
1 50
2 3
2 8
2 11
2 12
2 13
2 14
2 15
2 17
2 21
2 25
2 26
2 27
2 32
2 35
2 36
2 39
2 40
2 41
2 42
2 43
2 46
2 50
3 4
3 5
3 6
3 8
3 9
3 14
3 18
3 19
3 20
3 22
3 23
3 26
3 29
3 34
3 36
3 38
3 40
3 41
3 42
3 43
3 48
3 49
3 50
4 8
4 9
4 10
4 11
4 13
4 17
4 18
4 20
4 21
4 24
4 25
4 26
4 28
4 29
4 32
4 33
4 35
4 36
4 39
4 40
4 42
4 44
4 45
4 46
4 47
4 48
5 7
5 9
5 11
5 16
5 17
5 18
5 19
5 20
5 24
5 26
5 27
5 34
5 35
5 36
5 37
5 39
5 41
5 42
5 45
5 46
5 47
6 8
6 10
6 11
6 15
6 17
6 18
6 21
6 23
6 26
6 28
6 31
6 34
6 35
6 37
6 38
6 41
6 42
6 44
6 45
6 47
7 8
7 9
7 10
7 11
7 15
7 19
7 20
7 21
7 22
7 23
7 25
7 26
7 27
7 28
7 30
7 31
7 32
7 34
7 36
7 39
7 40
7 41
7 44
7 45
7 46
7 47
8 10
8 12
8 13
8 16
8 18
8 19
8 22
8 23
8 24
8 26
8 27
8 30
8 31
8 33
8 34
8 35
8 36
8 37
8 38
8 42
8 46
8 48
8 49
8 50
9 10
9 11
9 12
9 13
9 14
9 16
9 18
9 22
9 23
9 24
9 26
9 27
9 28
9 31
9 36
9 41
9 43
9 44
10 11
10 13
10 15
10 18
10 20
10 22
10 25
10 27
10 30
10 33
10 35
10 38
10 39
10 41
10 43
10 47
10 50
11 12
11 15
11 17
11 18
11 19
11 20
11 24
11 25
11 27
11 28
11 29
11 32
11 33
11 35
11 36
11 39
11 40
11 42
11 43
11 44
11 45
11 46
11 49
12 13
12 14
12 16
12 17
12 18
12 21
12 22
12 23
12 26
12 27
12 30
12 31
12 32
12 35
12 36
12 37
12 38
12 41
12 43
12 46
12 47
12 48
12 49
12 50
13 14
13 18
13 23
13 24
13 25
13 26
13 29
13 34
13 36
13 37
13 39
13 41
13 43
13 45
13 47
13 49
13 50
14 17
14 19
14 20
14 23
14 24
14 29
14 30
14 31
14 35
14 36
14 39
14 41
14 43
14 44
14 46
14 48
14 49
15 16
15 17
15 20
15 22
15 26
15 31
15 32
15 41
15 43
15 44
15 45
15 48
15 50
16 19
16 21
16 22
16 31
16 32
16 33
16 34
16 37
16 40
16 41
16 42
16 43
16 46
16 48
17 18
17 20
17 22
17 24
17 29
17 33
17 35
17 36
17 37
17 38
17 39
17 42
17 44
17 46
17 50
18 22
18 24
18 26
18 27
18 28
18 34
18 35
18 37
18 39
18 40
18 42
18 43
18 45
18 47
18 48
19 21
19 22
19 24
19 26
19 30
19 31
19 32
19 33
19 34
19 35
19 39
19 40
19 41
19 43
19 47
19 48
19 49
20 23
20 24
20 26
20 27
20 28
20 31
20 32
20 33
20 34
20 35
20 37
20 39
20 45
20 46
20 48
20 50
21 22
21 25
21 27
21 28
21 30
21 32
21 33
21 34
21 35
21 36
21 37
21 40
21 41
21 42
21 43
21 45
21 46
21 47
21 48
21 49
21 50
22 24
22 25
22 26
22 29
22 33
22 35
22 37
22 42
22 43
22 44
22 45
22 47
23 26
23 27
23 30
23 32
23 33
23 37
23 38
23 40
23 43
23 44
23 46
23 47
23 49
24 25
24 26
24 28
24 31
24 34
24 38
24 39
24 40
24 45
24 47
24 49
24 50
25 27
25 28
25 30
25 31
25 32
25 37
25 41
25 42
25 43
25 45
25 46
25 47
25 48
25 49
26 27
26 30
26 32
26 33
26 34
26 35
26 36
26 38
26 39
26 40
26 43
26 44
26 47
26 49
26 50
27 28
27 29
27 32
27 33
27 35
27 36
27 40
27 42
27 43
27 46
27 48
28 29
28 30
28 31
28 32
28 34
28 35
28 36
28 41
28 45
28 47
28 48
28 50
29 30
29 31
29 33
29 35
29 40
29 41
29 45
29 46
29 49
30 31
30 33
30 34
30 36
30 37
30 38
30 40
30 43
30 44
30 47
31 33
31 35
31 36
31 37
31 39
31 41
31 44
31 46
31 49
32 33
32 34
32 35
32 37
32 39
32 44
32 45
32 48
32 50
33 34
33 35
33 40
33 41
33 42
33 43
33 48
33 49
33 50
34 35
34 38
34 41
34 45
34 48
34 49
34 50
35 37
35 40
35 41
35 42
35 43
35 44
35 45
35 47
35 49
35 50
36 37
36 41
36 47
36 48
37 39
37 40
37 43
37 45
37 46
38 39
38 40
38 41
38 43
38 45
38 48
39 42
39 45
39 46
39 50
40 48
41 43
41 45
41 49
42 44
42 45
42 46
42 48
43 48
43 50
44 46
44 47
44 49
44 50
45 47
45 49
45 50
46 47
46 48
46 50
47 49
48 50
